WARNING: for repeatability, setting FPU to use double precision
============================[ Problem Statistics ]=============================
|                                                                             |
|  Number of variables:           100                                         |
|  Number of clauses:             449                                         |
|  Parse time:                   0.00 s                                       |
|  Eliminated clauses:           0.00 Mb                                      |
|  Simplification time:          0.00 s                                       |
|                                                                             |
============================[ Search Statistics ]==============================
| Conflicts |          ORIGINAL         |          LEARNT          | Progress |
|           |    Vars  Clauses Literals |    Limit  Clauses Lit/Cl |          |
===============================================================================
|       100 |      98      447     1353 |      163      100      7 |  0.010 % |
===============================================================================
restarts              : 2
conflicts             : 117            (47349 /sec)
decisions             : 144            (0.00 % random) (58276 /sec)
propagations          : 2600           (1052206 /sec)
conflict literals     : 822            (14.73 % deleted)
Memory used           : 13.00 MB
CPU time              : 0.002471 s

SATISFIABLE
